%%%mzn-stat: initTime=0.00518636
%%%mzn-stat: objective=479
%%%mzn-stat: nodes=5816
%%%mzn-stat: restarts=0
%%%mzn-stat: peakDepth=175
%%%mzn-stat: solveTime=1.834002272
%%%mzn-stat: variables=492
%%%mzn-stat: propagators=309
%%%mzn-stat: failures=5234
%%%mzn-stat: propagations=197949
%%%mzn-stat: nogoods=5234
%%%mzn-stat: AverageConflictSize=29.023691249522354
%%%mzn-stat: NumUnitNogoodsLearned=478
%%%mzn-stat: AverageLearnedNogoodLength=30.966564768819257
%%%mzn-stat: AverageBacktrackAmount=0
%%%mzn-stat: AverageLbd=8.364730607565916
%%%mzn-stat-end
maxleg = 479;
succ = array1d(1..50,[6, 24, 28, 27, 48, 37, 41, 42, 39, 16, 32, 14, 50, 33, 4, 49, 13, 5, 11, 17, 22, 38, 1, 35, 2, 19, 47, 34, 21, 26, 10, 8, 18, 7, 36, 31, 12, 20, 3, 30, 15, 46, 9, 43, 40, 23, 29, 25, 44, 45]);
% time elapsed: 6.57 s
----------
==========
% time elapsed: 6.57 s
%%%mzn-stat: initTime=0.00518636
%%%mzn-stat: objective=479
%%%mzn-stat: nodes=5816
%%%mzn-stat: restarts=0
%%%mzn-stat: peakDepth=175
%%%mzn-stat: solveTime=1.8340182729999999
%%%mzn-stat: variables=492
%%%mzn-stat: propagators=309
%%%mzn-stat: failures=5234
%%%mzn-stat: propagations=197949
%%%mzn-stat: nogoods=5234
%%%mzn-stat: AverageConflictSize=29.023691249522354
%%%mzn-stat: NumUnitNogoodsLearned=478
%%%mzn-stat: AverageLearnedNogoodLength=30.966564768819257
%%%mzn-stat: AverageBacktrackAmount=0
%%%mzn-stat: AverageLbd=8.364730607565916
%%%mzn-stat-end
